103239
0,9,28,44,45,53,20,70,65,35,79,61,13,69,25,75,66,19,8,76,57,73,31,39,81,74,34,29,1,37,15,10,32,26,6,16,55,50,71,80,59,46,48,33,56,42,2,11,22,54,41,24,14,68,77,40,51,38,62,3,49,64,52,82,60,5,78,27,7,58,67,43,21,4,18,30,23,47,17,36,12,72,63,0